Total weight: 1335.0481320798374
Route 1: 0 28 76 29 24 55 4 54 12 0 
Route 2: 0 89 6 94 95 37 98 93 59 0 
Route 3: 0 18 45 46 8 83 60 5 0 
Route 4: 0 27 69 31 52 0 
Route 5: 0 53 40 21 57 0 
Route 6: 0 50 33 79 78 34 3 77 0 
Route 7: 0 7 48 19 11 32 66 20 51 81 1 0 
Route 8: 0 92 42 43 38 86 14 100 91 97 87 0 
Route 9: 0 2 15 41 75 22 0 
Route 10: 0 16 44 23 56 74 72 73 58 0 
Route 11: 0 88 62 64 49 36 47 82 0 
Route 12: 0 70 30 90 63 10 0 
Route 13: 0 71 65 35 9 0 
Route 14: 0 26 39 67 25 68 80 0 
Route 15: 0 13 96 99 84 17 61 85 0 
